405 404 400 403 401 360 359 358 357 354 352 351 350 349 348 347 362 361 363 364 346 345 344 343 341 340 330 331 332 333 339 338 337 336 335 334 283 284 285 286 287 280 281 282 279 278 277 276 288 289 290 291 292 275 274 273 272 269 271 267 268 270 293 294 295 296 297 298 266 265 264 263 262 261 260 259 258 299 300 257 256 255 253 254 252 251 250 249 248 241 242 243 244 245 247 246 216 217 215 214 213 212 211 210 209 205 206 207 208 203 204 202 201 200 199 198 197 196 195 194 193 219 218 220 221 222 223 224 225 226 191 192 190 189 227 228 229 230 231 533 488 489 532 531 530 233 232 234 235 236 238 239 240 237 509 510 511 513 512 527 528 529 490 486 487 534 535 536 537 539 538 540 176 177 178 187 188 186 182 183 185 184 181 179 180 169 171 170 175 174 173 172 111 110 109 108 107 542 541 543 544 547 546 545 548 549 560 561 562 563 564 565 566 567 475 476 477 478 479 480 481 483 484 485 482 473 474 570 569 568 19 20 21 24 25 26 27 28 29 34 33 35 40 41 557 558 559 550 551 101 100 99 552 553 554 556 555 45 46 91 92 93 94 95 96 97 98 102 103 104 105 106 117 116 115 114 112 113 161 162 168 163 167 166 164 165 154 160 159 156 155 153 157 158 145 144 143 142 146 147 148 152 149 150 151 141 140 139 137 136 135 134 133 132 131 130 129 128 127 126 125 124 138 69 70 68 67 66 65 72 71 123 122 121 120 118 119 73 74 75 76 64 62 63 61 60 59 58 56 55 53 83 82 57 81 80 79 78 77 88 89 90 87 86 85 84 51 50 52 54 49 48 47 44 43 42 39 38 37 36 32 30 31 22 23 12 13 14 15 16 11 10 9 18 17 8 7 6 5 4 3 2 1 0 573 572 571 468 469 470 471 472 494 495 518 519 520 521 524 525 493 492 491 526 523 522 514 515 516 517 502 503 504 506 507 508 302 301 303 306 319 320 321 322 323 324 325 326 327 328 329 366 342 365 367 368 369 370 398 399 397 394 393 391 392 390 388 389 381 380 379 378 377 376 375 395 396 371 372 373 374 315 314 316 317 318 305 304 307 505 308 309 310 313 312 311 451 450 449 448 447 446 445 444 443 442 439 440 441 453 452 499 500 501 498 497 496 464 465 467 466 463 462 461 460 459 458 457 456 455 454 438 437 436 435 434 433 432 430 431 429 428 427 426 425 424 423 422 421 420 416 415 414 413 353 355 356 402 412 411 417 419 418 410 384 383 382 386 387 385 409 408 407 406